hourly_capacities = [4, 5, 5, 6, 5, 0, 5, 4, 3]; % how many employees are available each hour
visits_preferred_hours = [4, 8, 7, 2, 2, 6, 6, 7, 8, 7, 3, 8, 3, 9, 3, 8, 4, 6, 7, 9, 6, 2, 7, 6, 9, 4, 9, 6, 7, 9, 1, 7, 1, 1, 1]; % students' preferences, 1 means the students would like to start being graded within [0 min .. 59 min] window, 2 ~ withing [60 min .. 119 min], etc.
visits_durations_min = [34, 46, 29, 51, 31, 40, 24, 16, 18, 35, 31, 42, 35, 53, 40, 32, 20, 26, 31, 21, 29, 39, 25, 19, 46, 33, 7, 28, 5, 39, 43, 54, 36, 19, 15]; % how many minutes will take to grade the student